NAME          STRESS_17
OBJSENSE
 MIN
ROWS
 N  OBJ
 G  C1
 G  C2
 G  C3
 G  C4
 G  C5
 G  C6
 G  C7
 G  C8
 G  C9
 G  C10
 G  C11
 G  C12
 G  C13
 L  C14
 L  C15
 L  C16
 L  C17
 L  C18
 L  C19
 L  C20
 L  C21
 L  C22
 L  C23
 L  C24
 L  C25
 L  C26
 L  C27
 L  C28
 L  C29
 L  C30
 L  C31
 L  C32
 L  C33
 L  C34
COLUMNS
    MARK0000  'MARKER'                 'INTORG'
    X1        OBJ 5
    X1        C1  2
    X1        C2  1
    X1        C14 2
    X1        C23 1
    X2        OBJ 6
    X2        C1  1
    X2        C3  2
    X2        C14 3
    X2        C15 1
    X3        OBJ 4
    X3        C2  3
    X3        C4  1
    X3        C14 1
    X3        C16 1
    X4        OBJ 7
    X4        C1  1
    X4        C4  2
    X4        C15 1
    X4        C24 1
    X5        OBJ 5
    X5        C2  2
    X5        C3  1
    X5        C14 2
    X5        C17 1
    X6        OBJ 6
    X6        C3  2
    X6        C5  2
    X6        C14 1
    X6        C25 1
    X7        OBJ 5
    X7        C4  2
    X7        C6  2
    X7        C14 1
    X7        C26 1
    X8        OBJ 7
    X8        C5  2
    X8        C7  2
    X8        C14 1
    X8        C27 1
    X9        OBJ 6
    X9        C6  2
    X9        C8  2
    X9        C14 1
    X9        C28 1
    X10       OBJ 8
    X10       C7  2
    X10       C9  2
    X10       C14 1
    X10       C29 1
    X11       OBJ 7
    X11       C8  2
    X11       C10 2
    X11       C14 1
    X11       C30 1
    X12       OBJ 6
    X12       C9  2
    X12       C11 2
    X12       C14 1
    X12       C31 1
    X13       OBJ 7
    X13       C10 2
    X13       C12 2
    X13       C14 1
    X13       C32 1
    X14       OBJ 8
    X14       C11 2
    X14       C13 2
    X14       C14 1
    X14       C33 1
    X15       OBJ 6
    X15       C5  1
    X15       C9  2
    X15       C14 1
    X15       C34 1
    X16       OBJ 7
    X16       C6  1
    X16       C10 2
    X16       C14 1
    X16       C34 1
    X17       OBJ 6
    X17       C7  1
    X17       C11 2
    X17       C14 1
    X17       C33 1
    X18       OBJ 7
    X18       C8  1
    X18       C12 2
    X18       C14 1
    X18       C32 1
    Z1        OBJ 8
    Z1        C1  2
    Z1        C14 1
    Z1        C23 1
    Z2        OBJ 7
    Z2        C2  2
    Z2        C14 1
    Z2        C24 1
    Z3        OBJ 9
    Z3        C3  3
    Z3        C14 1
    Z3        C25 1
    Z4        OBJ 8
    Z4        C4  2
    Z4        C14 1
    Z4        C26 1
    Z5        OBJ 7
    Z5        C5  2
    Z5        C14 1
    Z5        C27 1
    Z6        OBJ 8
    Z6        C6  2
    Z6        C14 1
    Z6        C28 1
    Z7        OBJ 9
    Z7        C7  2
    Z7        C14 1
    Z7        C29 1
    Z8        OBJ 10
    Z8        C8  2
    Z8        C14 1
    Z8        C30 1
    Z9        OBJ 9
    Z9        C9  2
    Z9        C14 1
    Z9        C31 1
    Z10       OBJ 10
    Z10       C10 2
    Z10       C14 1
    Z10       C32 1
    Z11       OBJ 9
    Z11       C11 2
    Z11       C14 1
    Z11       C33 1
    Z12       OBJ 10
    Z12       C12 2
    Z12       C14 1
    Z12       C34 1
    Z13       OBJ 9
    Z13       C13 3
    Z13       C14 1
    Z13       C33 1
    Z14       OBJ 10
    Z14       C6  1
    Z14       C13 2
    Z14       C14 1
    Z14       C34 1
    MARK0001  'MARKER'                 'INTEND'
    Y1        OBJ 1
    Y1        C1  1
    Y1        C15 1
    Y1        C16 1
    Y2        OBJ 2
    Y2        C2  1
    Y2        C3  1
    Y2        C17 1
    Y2        C18 1
    Y3        OBJ 2
    Y3        C4  1
    Y3        C5  1
    Y3        C19 1
    Y3        C20 1
    Y4        OBJ 1
    Y4        C6  1
    Y4        C7  1
    Y4        C21 1
    Y4        C22 1
    Y5        OBJ 2
    Y5        C8  1
    Y5        C9  1
    Y5        C23 1
    Y5        C24 1
    Y6        OBJ 2
    Y6        C10 1
    Y6        C11 1
    Y6        C25 1
    Y6        C26 1
    Y7        OBJ 1
    Y7        C12 1
    Y7        C13 1
    Y7        C27 1
    Y7        C28 1
    Y8        OBJ 2
    Y8        C5  1
    Y8        C11 1
    Y8        C29 1
    Y8        C30 1
RHS
    RHS1      C1  16
    RHS1      C2  16
    RHS1      C3  15
    RHS1      C4  14
    RHS1      C5  14
    RHS1      C6  13
    RHS1      C7  13
    RHS1      C8  12
    RHS1      C9  12
    RHS1      C10 11
    RHS1      C11 11
    RHS1      C12 10
    RHS1      C13 10
    RHS1      C14 58
    RHS1      C15 7
    RHS1      C16 7
    RHS1      C17 7
    RHS1      C18 7
    RHS1      C19 7
    RHS1      C20 7
    RHS1      C21 7
    RHS1      C22 7
    RHS1      C23 7
    RHS1      C24 7
    RHS1      C25 7
    RHS1      C26 7
    RHS1      C27 7
    RHS1      C28 7
    RHS1      C29 7
    RHS1      C30 7
    RHS1      C31 7
    RHS1      C32 7
    RHS1      C33 7
    RHS1      C34 7
BOUNDS
 UP BND1      X1  10
 UP BND1      X2  10
 UP BND1      X3  10
 UP BND1      X4  10
 UP BND1      X5  10
 UP BND1      X6  10
 UP BND1      X7  10
 UP BND1      X8  10
 UP BND1      X9  10
 UP BND1      X10 10
 UP BND1      X11 10
 UP BND1      X12 10
 UP BND1      X13 10
 UP BND1      X14 10
 UP BND1      X15 10
 UP BND1      X16 10
 UP BND1      X17 10
 UP BND1      X18 10
 BV BND1      Z1
 BV BND1      Z2
 BV BND1      Z3
 BV BND1      Z4
 BV BND1      Z5
 BV BND1      Z6
 BV BND1      Z7
 BV BND1      Z8
 BV BND1      Z9
 BV BND1      Z10
 BV BND1      Z11
 BV BND1      Z12
 BV BND1      Z13
 BV BND1      Z14
 UP BND1      Y1  7
 UP BND1      Y2  7
 UP BND1      Y3  7
 UP BND1      Y4  7
 UP BND1      Y5  7
 UP BND1      Y6  7
 UP BND1      Y7  7
 UP BND1      Y8  7
ENDATA
